W=6;
H=6;

MAX_TIME=12;
MAX_TRACKS=16;

TARGET=(4,6);

TRAINS=[(2,2,DOWN),(6,2,TOP),(6,6,LEFT),(2,6,LEFT)];
DECOYS=[];

INIT_POS=[
(2,2,STRAIGHT_TD),
(2,6,STRAIGHT_RL),
(4,6,STRAIGHT_RL),
(6,2,STRAIGHT_TD),
(6,6,STRAIGHT_RL),
];
TUNNEL_PAIRS=[];

GATES=[];
ACTIVATIONS=[];

DSWITCHES=[];
STATIONS=[];

SEMAPHORE_SUPPLY=0;
